# avogadro generated ORCA input file 
# Basic Mode
# F3_capped
! B3LYP D3BJ def2-SVP TightSCF SP 

* xyz 0 1
   N        3.01400        0.27200       -1.00800
   C        2.49800       -0.01800       -2.37500
   C        1.78000       -1.36800       -2.38500
   O        1.81500       -2.09100       -3.36200
   H        1.80800        0.76000       -2.67000
   H        3.32300       -0.04900       -3.07100
   N        1.12700       -1.71900       -1.31000
   C        0.41100       -3.02500       -1.27400
   C       -0.64100       -3.01300       -0.16200
   O       -0.63300       -2.16400        0.70700
   C        1.41800       -4.14700       -1.01100
   C        1.68200       -4.91200       -2.30800
   O        2.63300       -3.58700       -0.53200
   H        1.10800       -1.12500       -0.53100
   H       -0.07300       -3.19500       -2.22400
   H        1.01800       -4.82500       -0.27300
   H        3.27500       -4.29600       -0.45000
   H        0.81300       -5.50100       -2.56200
   H        2.53300       -5.56300       -2.17600
   H        1.88500       -4.21000       -3.10400
   N       -1.54500       -3.95500       -0.18400
   C       -2.59800       -4.01100        0.86800
   C       -1.96000       -4.39500        2.20500
   O       -1.57600       -5.52800        2.41700
   C       -3.64000       -5.06700        0.48700
   C       -3.84800       -5.06800       -0.99600
   C       -3.21600       -5.88200       -1.87300
   C       -4.74300       -4.23600       -1.78600
   C       -4.60800       -4.59100       -3.14800
   C       -5.64800       -3.21800       -1.45400
   N       -3.66400       -5.59600       -3.15000
   C       -5.34900       -3.95800       -4.14600
   C       -6.39800       -2.57700       -2.45500
   C       -6.24800       -2.94700       -3.79900
   H       -1.53200       -4.62700       -0.89200
   H       -3.07500       -3.04700        0.95700
   H       -3.29500       -6.04100        0.80000
   H       -4.57500       -4.84300        0.98000
   H       -2.47800       -6.62800       -1.61800
   H       -3.36400       -6.04200       -3.96800
   H       -5.76600       -2.92700       -0.42200
   H       -5.22800       -4.24800       -5.18000
   H       -7.09300       -1.79600       -2.18700
   H       -6.82700       -2.45100       -4.56400
   N       -1.84400       -3.46100        3.10900
   C       -1.22900       -3.77400        4.43100
   C       -1.87700       -5.03100        5.01400
   O       -1.28900       -6.09200        4.88200
   O       -2.94900       -4.91200        5.58400
   H       -3.18000       -3.98200        5.64200
   H       -2.15900       -2.55300        2.91800
   H       -0.16900       -3.93900        4.30500
   H       -1.38700       -2.94600        5.10600
   H        3.49139        1.17339       -1.00892
   H        3.66847       -0.45908       -0.72944
*

