# avogadro generated ORCA input file 
# Basic Mode
# I23_capped_proper
! B3LYP D3BJ def2-SVP TightSCF SP 

* xyz 0 1
   N        3.01400        0.27200       -1.00800
   C        2.49800       -0.01800       -2.37500
   C        1.78000       -1.36800       -2.38500
   O        1.81500       -2.09100       -3.36200
   H        1.80800        0.76000       -2.67000
   H        3.32300       -0.04900       -3.07100
   N        1.12700       -1.71900       -1.31000
   C        0.41100       -3.02500       -1.27400
   C       -0.64100       -3.01300       -0.16200
   O       -0.63300       -2.16400        0.70700
   C        1.41800       -4.14700       -1.01100
   C        1.68200       -4.91200       -2.30800
   O        2.63300       -3.58700       -0.53200
   H        1.10800       -1.12500       -0.53100
   H       -0.07300       -3.19500       -2.22400
   H        1.01800       -4.82500       -0.27300
   H        3.27500       -4.29600       -0.45000
   H        0.81300       -5.50100       -2.56200
   H        2.53300       -5.56300       -2.17600
   H        1.88500       -4.21000       -3.10400
   H        3.49139        1.17339       -1.00892
   H        3.66847       -0.45908       -0.72944
   H       -1.37218       -3.74120       -0.15026
*

